%0scf int
#
 
56 pm3 1scf
 
0 1 
6	0.	6.780000575714741	0.
6	2.7576746742182063	6.19383872875842	0.
6	3.985184348939603	5.485135687625152	-2.4595121467478056
6	5.871652736242086	3.39000028785737	-2.4595121467478056
6	6.4481637280183985	2.0951353997677815	0.
6	6.742859023157808	-0.7087030411332682	0.
6	6.448163728018397	-2.0951353997677833	-2.4595121467478056
6	5.0385223445761635	-4.536705896341413	-2.4595121467478056
6	3.9851843489396	-5.485135687625155	0.
6	1.4096413834422303	-6.6318412961091955	0.
6	8.303106003266269e-16	-6.780000575714741	-2.4595121467478056
6	-2.7576746742182063	-6.19383872875842	-2.4595121467478056
6	-3.9851843489396037	-5.485135687625151	0.
6	-5.871652736242086	-3.390000287857368	0.
6	-6.4481637280183985	-2.095135399767778	-2.4595121467478056
6	-6.742859023157808	0.7087030411332704	-2.4595121467478056
6	-6.448163728018395	2.095135399767787	0.
6	-5.038522344576163	4.536705896341414	0.
6	-3.9851843489396037	5.485135687625152	-2.4595121467478056
6	-1.409641383442237	6.631841296109195	-2.4595121467478056
6	0.	6.780000575714741	4.919024293495611
6	2.7576746742182063	6.19383872875842	4.919024293495611
6	3.985184348939603	5.485135687625152	2.4595121467478056
6	5.871652736242086	3.39000028785737	2.4595121467478056
6	6.4481637280183985	2.0951353997677815	4.919024293495611
6	6.742859023157808	-0.7087030411332682	4.919024293495611
6	6.448163728018397	-2.0951353997677833	2.4595121467478056
6	5.0385223445761635	-4.536705896341413	2.4595121467478056
6	3.9851843489396	-5.485135687625155	4.919024293495611
6	1.4096413834422303	-6.6318412961091955	4.919024293495611
6	8.303106003266269e-16	-6.780000575714741	2.4595121467478056
6	-2.7576746742182063	-6.19383872875842	2.4595121467478056
6	-3.9851843489396037	-5.485135687625151	4.919024293495611
6	-5.871652736242086	-3.390000287857368	4.919024293495611
6	-6.4481637280183985	-2.095135399767778	2.4595121467478056
6	-6.742859023157808	0.7087030411332704	2.4595121467478056
6	-6.448163728018395	2.095135399767787	4.919024293495611
6	-5.038522344576163	4.536705896341414	4.919024293495611
6	-3.9851843489396037	5.485135687625152	2.4595121467478056
6	-1.409641383442237	6.631841296109195	2.4595121467478056
6	0.	6.780000575714741	9.838048586991222
6	2.7576746742182063	6.19383872875842	9.838048586991222
6	3.985184348939603	5.485135687625152	7.378536440243416
6	5.871652736242086	3.39000028785737	7.378536440243416
6	6.4481637280183985	2.0951353997677815	9.838048586991222
6	6.742859023157808	-0.7087030411332682	9.838048586991222
6	6.448163728018397	-2.0951353997677833	7.378536440243416
6	5.0385223445761635	-4.536705896341413	7.378536440243416
6	3.9851843489396	-5.485135687625155	9.838048586991222
6	1.4096413834422303	-6.6318412961091955	9.838048586991222
6	8.303106003266269e-16	-6.780000575714741	7.378536440243416
6	-2.7576746742182063	-6.19383872875842	7.378536440243416
6	-3.9851843489396037	-5.485135687625151	9.838048586991222
6	-5.871652736242086	-3.390000287857368	9.838048586991222
6	-6.4481637280183985	-2.095135399767778	7.378536440243416
6	-6.742859023157808	0.7087030411332704	7.378536440243416
6	-6.448163728018395	2.095135399767787	9.838048586991222
6	-5.038522344576163	4.536705896341414	9.838048586991222
6	-3.9851843489396037	5.485135687625152	7.378536440243416
6	-1.409641383442237	6.631841296109195	7.378536440243416
6	0.	6.780000575714741	14.757072880486833
6	2.7576746742182063	6.19383872875842	14.757072880486833
6	3.985184348939603	5.485135687625152	12.297560733739028
6	5.871652736242086	3.39000028785737	12.297560733739028
6	6.4481637280183985	2.0951353997677815	14.757072880486833
6	6.742859023157808	-0.7087030411332682	14.757072880486833
6	6.448163728018397	-2.0951353997677833	12.297560733739028
6	5.0385223445761635	-4.536705896341413	12.297560733739028
6	3.9851843489396	-5.485135687625155	14.757072880486833
6	1.4096413834422303	-6.6318412961091955	14.757072880486833
6	8.303106003266269e-16	-6.780000575714741	12.297560733739028
6	-2.7576746742182063	-6.19383872875842	12.297560733739028
6	-3.9851843489396037	-5.485135687625151	14.757072880486833
6	-5.871652736242086	-3.390000287857368	14.757072880486833
6	-6.4481637280183985	-2.095135399767778	12.297560733739028
6	-6.742859023157808	0.7087030411332704	12.297560733739028
6	-6.448163728018395	2.095135399767787	14.757072880486833
6	-5.038522344576163	4.536705896341414	14.757072880486833
6	-3.9851843489396037	5.485135687625152	12.297560733739028
6	-1.409641383442237	6.631841296109195	12.297560733739028
6	0.	6.780000575714741	19.676097173982445
6	2.7576746742182063	6.19383872875842	19.676097173982445
6	3.985184348939603	5.485135687625152	17.21658502723464
6	5.871652736242086	3.39000028785737	17.21658502723464
6	6.4481637280183985	2.0951353997677815	19.676097173982445
6	6.742859023157808	-0.7087030411332682	19.676097173982445
6	6.448163728018397	-2.0951353997677833	17.21658502723464
6	5.0385223445761635	-4.536705896341413	17.21658502723464
6	3.9851843489396	-5.485135687625155	19.676097173982445
6	1.4096413834422303	-6.6318412961091955	19.676097173982445
6	8.303106003266269e-16	-6.780000575714741	17.21658502723464
6	-2.7576746742182063	-6.19383872875842	17.21658502723464
6	-3.9851843489396037	-5.485135687625151	19.676097173982445
6	-5.871652736242086	-3.390000287857368	19.676097173982445
6	-6.4481637280183985	-2.095135399767778	17.21658502723464
6	-6.742859023157808	0.7087030411332704	17.21658502723464
6	-6.448163728018395	2.095135399767787	19.676097173982445
6	-5.038522344576163	4.536705896341414	19.676097173982445
6	-3.9851843489396037	5.485135687625152	17.21658502723464
6	-1.409641383442237	6.631841296109195	17.21658502723464
6	0.	6.780000575714741	24.595121467478055
6	2.7576746742182063	6.19383872875842	24.595121467478055
6	3.985184348939603	5.485135687625152	22.135609320730254
6	5.871652736242086	3.39000028785737	22.135609320730254
6	6.4481637280183985	2.0951353997677815	24.595121467478055
6	6.742859023157808	-0.7087030411332682	24.595121467478055
6	6.448163728018397	-2.0951353997677833	22.135609320730254
6	5.0385223445761635	-4.536705896341413	22.135609320730254
6	3.9851843489396	-5.485135687625155	24.595121467478055
6	1.4096413834422303	-6.6318412961091955	24.595121467478055
6	8.303106003266269e-16	-6.780000575714741	22.135609320730254
6	-2.7576746742182063	-6.19383872875842	22.135609320730254
6	-3.9851843489396037	-5.485135687625151	24.595121467478055
6	-5.871652736242086	-3.390000287857368	24.595121467478055
6	-6.4481637280183985	-2.095135399767778	22.135609320730254
6	-6.742859023157808	0.7087030411332704	22.135609320730254
6	-6.448163728018395	2.095135399767787	24.595121467478055
6	-5.038522344576163	4.536705896341414	24.595121467478055
6	-3.9851843489396037	5.485135687625152	22.135609320730254
6	-1.409641383442237	6.631841296109195	22.135609320730254
6	0.	6.780000575714741	29.514145760973665
6	2.7576746742182063	6.19383872875842	29.514145760973665
6	3.985184348939603	5.485135687625152	27.05463361422586
6	5.871652736242086	3.39000028785737	27.05463361422586
6	6.4481637280183985	2.0951353997677815	29.514145760973665
6	6.742859023157808	-0.7087030411332682	29.514145760973665
6	6.448163728018397	-2.0951353997677833	27.05463361422586
6	5.0385223445761635	-4.536705896341413	27.05463361422586
6	3.9851843489396	-5.485135687625155	29.514145760973665
6	1.4096413834422303	-6.6318412961091955	29.514145760973665
6	8.303106003266269e-16	-6.780000575714741	27.05463361422586
6	-2.7576746742182063	-6.19383872875842	27.05463361422586
6	-3.9851843489396037	-5.485135687625151	29.514145760973665
6	-5.871652736242086	-3.390000287857368	29.514145760973665
6	-6.4481637280183985	-2.095135399767778	27.05463361422586
6	-6.742859023157808	0.7087030411332704	27.05463361422586
6	-6.448163728018395	2.095135399767787	29.514145760973665
6	-5.038522344576163	4.536705896341414	29.514145760973665
6	-3.9851843489396037	5.485135687625152	27.05463361422586
6	-1.409641383442237	6.631841296109195	27.05463361422586