%0scf int
#
 
72 pm3 1scf
 
0 1 
6	0.	13.560001151429482	0.
6	2.819282766884467	13.263682592218391	0.
6	4.190270799535566	12.896327456036794	-2.4595121467478056
6	6.780000575714741	11.74330547248417	-2.4595121467478056
6	7.970368697879206	10.970271375250304	0.
6	10.077044689152327	9.073411792682826	0.
6	10.970271375250308	7.970368697879202	-2.4595121467478056
6	12.38767745751684	5.515349348436413	-2.4595121467478056
6	12.896327456036797	4.190270799535563	0.
6	13.485718046315618	1.417406082266532	0.
6	13.560001151429482	8.303106003266269e-16	-2.4595121467478056
6	13.263682592218391	-2.819282766884467	-2.4595121467478056
6	12.896327456036794	-4.190270799535567	0.
6	11.743305472484167	-6.780000575714744	0.
6	10.970271375250302	-7.970368697879208	-2.4595121467478056
6	9.073411792682823	-10.077044689152329	-2.4595121467478056
6	7.9703686978792	-10.97027137525031	0.
6	5.515349348436411	-12.387677457516842	0.
6	4.190270799535566	-12.896327456036794	-2.4595121467478056
6	1.417406082266539	-13.485718046315617	-2.4595121467478056
6	1.6606212006532539e-15	-13.560001151429482	0.
6	-2.8192827668844633	-13.263682592218391	0.
6	-4.190270799535563	-12.896327456036797	-2.4595121467478056
6	-6.780000575714737	-11.743305472484172	-2.4595121467478056
6	-7.970368697879207	-10.970271375250302	0.
6	-10.077044689152329	-9.073411792682823	0.
6	-10.970271375250313	-7.970368697879197	-2.4595121467478056
6	-12.387677457516848	-5.5153493484364	-2.4595121467478056
6	-12.896327456036797	-4.190270799535556	0.
6	-13.485718046315618	-1.4174060822665218	0.
6	-13.560001151429482	9.552768592828635e-15	-2.4595121467478056
6	-13.26368259221839	2.81928276688448	-2.4595121467478056
6	-12.89632745603679	4.190270799535574	0.
6	-11.743305472484163	6.7800005757147535	0.
6	-10.970271375250308	7.970368697879201	-2.4595121467478056
6	-9.073411792682823	10.077044689152327	-2.4595121467478056
6	-7.970368697879207	10.970271375250304	0.
6	-5.515349348436413	12.387677457516842	0.
6	-4.1902707995355675	12.896327456036794	-2.4595121467478056
6	-1.4174060822665346	13.485718046315617	-2.4595121467478056
6	0.	13.560001151429482	4.919024293495611
6	2.819282766884467	13.263682592218391	4.919024293495611
6	4.190270799535566	12.896327456036794	2.4595121467478056
6	6.780000575714741	11.74330547248417	2.4595121467478056
6	7.970368697879206	10.970271375250304	4.919024293495611
6	10.077044689152327	9.073411792682826	4.919024293495611
6	10.970271375250308	7.970368697879202	2.4595121467478056
6	12.38767745751684	5.515349348436413	2.4595121467478056
6	12.896327456036797	4.190270799535563	4.919024293495611
6	13.485718046315618	1.417406082266532	4.919024293495611
6	13.560001151429482	8.303106003266269e-16	2.4595121467478056
6	13.263682592218391	-2.819282766884467	2.4595121467478056
6	12.896327456036794	-4.190270799535567	4.919024293495611
6	11.743305472484167	-6.780000575714744	4.919024293495611
6	10.970271375250302	-7.970368697879208	2.4595121467478056
6	9.073411792682823	-10.077044689152329	2.4595121467478056
6	7.9703686978792	-10.97027137525031	4.919024293495611
6	5.515349348436411	-12.387677457516842	4.919024293495611
6	4.190270799535566	-12.896327456036794	2.4595121467478056
6	1.417406082266539	-13.485718046315617	2.4595121467478056
6	1.6606212006532539e-15	-13.560001151429482	4.919024293495611
6	-2.8192827668844633	-13.263682592218391	4.919024293495611
6	-4.190270799535563	-12.896327456036797	2.4595121467478056
6	-6.780000575714737	-11.743305472484172	2.4595121467478056
6	-7.970368697879207	-10.970271375250302	4.919024293495611
6	-10.077044689152329	-9.073411792682823	4.919024293495611
6	-10.970271375250313	-7.970368697879197	2.4595121467478056
6	-12.387677457516848	-5.5153493484364	2.4595121467478056
6	-12.896327456036797	-4.190270799535556	4.919024293495611
6	-13.485718046315618	-1.4174060822665218	4.919024293495611
6	-13.560001151429482	9.552768592828635e-15	2.4595121467478056
6	-13.26368259221839	2.81928276688448	2.4595121467478056
6	-12.89632745603679	4.190270799535574	4.919024293495611
6	-11.743305472484163	6.7800005757147535	4.919024293495611
6	-10.970271375250308	7.970368697879201	2.4595121467478056
6	-9.073411792682823	10.077044689152327	2.4595121467478056
6	-7.970368697879207	10.970271375250304	4.919024293495611
6	-5.515349348436413	12.387677457516842	4.919024293495611
6	-4.1902707995355675	12.896327456036794	2.4595121467478056
6	-1.4174060822665346	13.485718046315617	2.4595121467478056
6	0.	13.560001151429482	9.838048586991222
6	2.819282766884467	13.263682592218391	9.838048586991222
6	4.190270799535566	12.896327456036794	7.378536440243416
6	6.780000575714741	11.74330547248417	7.378536440243416
6	7.970368697879206	10.970271375250304	9.838048586991222
6	10.077044689152327	9.073411792682826	9.838048586991222
6	10.970271375250308	7.970368697879202	7.378536440243416
6	12.38767745751684	5.515349348436413	7.378536440243416
6	12.896327456036797	4.190270799535563	9.838048586991222
6	13.485718046315618	1.417406082266532	9.838048586991222
6	13.560001151429482	8.303106003266269e-16	7.378536440243416
6	13.263682592218391	-2.819282766884467	7.378536440243416
6	12.896327456036794	-4.190270799535567	9.838048586991222
6	11.743305472484167	-6.780000575714744	9.838048586991222
6	10.970271375250302	-7.970368697879208	7.378536440243416
6	9.073411792682823	-10.077044689152329	7.378536440243416
6	7.9703686978792	-10.97027137525031	9.838048586991222
6	5.515349348436411	-12.387677457516842	9.838048586991222
6	4.190270799535566	-12.896327456036794	7.378536440243416
6	1.417406082266539	-13.485718046315617	7.378536440243416
6	1.6606212006532539e-15	-13.560001151429482	9.838048586991222
6	-2.8192827668844633	-13.263682592218391	9.838048586991222
6	-4.190270799535563	-12.896327456036797	7.378536440243416
6	-6.780000575714737	-11.743305472484172	7.378536440243416
6	-7.970368697879207	-10.970271375250302	9.838048586991222
6	-10.077044689152329	-9.073411792682823	9.838048586991222
6	-10.970271375250313	-7.970368697879197	7.378536440243416
6	-12.387677457516848	-5.5153493484364	7.378536440243416
6	-12.896327456036797	-4.190270799535556	9.838048586991222
6	-13.485718046315618	-1.4174060822665218	9.838048586991222
6	-13.560001151429482	9.552768592828635e-15	7.378536440243416
6	-13.26368259221839	2.81928276688448	7.378536440243416
6	-12.89632745603679	4.190270799535574	9.838048586991222
6	-11.743305472484163	6.7800005757147535	9.838048586991222
6	-10.970271375250308	7.970368697879201	7.378536440243416
6	-9.073411792682823	10.077044689152327	7.378536440243416
6	-7.970368697879207	10.970271375250304	9.838048586991222
6	-5.515349348436413	12.387677457516842	9.838048586991222
6	-4.1902707995355675	12.896327456036794	7.378536440243416
6	-1.4174060822665346	13.485718046315617	7.378536440243416
6	0.	13.560001151429482	14.757072880486833
6	2.819282766884467	13.263682592218391	14.757072880486833
6	4.190270799535566	12.896327456036794	12.297560733739028
6	6.780000575714741	11.74330547248417	12.297560733739028
6	7.970368697879206	10.970271375250304	14.757072880486833
6	10.077044689152327	9.073411792682826	14.757072880486833
6	10.970271375250308	7.970368697879202	12.297560733739028
6	12.38767745751684	5.515349348436413	12.297560733739028
6	12.896327456036797	4.190270799535563	14.757072880486833
6	13.485718046315618	1.417406082266532	14.757072880486833
6	13.560001151429482	8.303106003266269e-16	12.297560733739028
6	13.263682592218391	-2.819282766884467	12.297560733739028
6	12.896327456036794	-4.190270799535567	14.757072880486833
6	11.743305472484167	-6.780000575714744	14.757072880486833
6	10.970271375250302	-7.970368697879208	12.297560733739028
6	9.073411792682823	-10.077044689152329	12.297560733739028
6	7.9703686978792	-10.97027137525031	14.757072880486833
6	5.515349348436411	-12.387677457516842	14.757072880486833
6	4.190270799535566	-12.896327456036794	12.297560733739028
6	1.417406082266539	-13.485718046315617	12.297560733739028
6	1.6606212006532539e-15	-13.560001151429482	14.757072880486833
6	-2.8192827668844633	-13.263682592218391	14.757072880486833
6	-4.190270799535563	-12.896327456036797	12.297560733739028
6	-6.780000575714737	-11.743305472484172	12.297560733739028
6	-7.970368697879207	-10.970271375250302	14.757072880486833
6	-10.077044689152329	-9.073411792682823	14.757072880486833
6	-10.970271375250313	-7.970368697879197	12.297560733739028
6	-12.387677457516848	-5.5153493484364	12.297560733739028
6	-12.896327456036797	-4.190270799535556	14.757072880486833
6	-13.485718046315618	-1.4174060822665218	14.757072880486833
6	-13.560001151429482	9.552768592828635e-15	12.297560733739028
6	-13.26368259221839	2.81928276688448	12.297560733739028
6	-12.89632745603679	4.190270799535574	14.757072880486833
6	-11.743305472484163	6.7800005757147535	14.757072880486833
6	-10.970271375250308	7.970368697879201	12.297560733739028
6	-9.073411792682823	10.077044689152327	12.297560733739028
6	-7.970368697879207	10.970271375250304	14.757072880486833
6	-5.515349348436413	12.387677457516842	14.757072880486833
6	-4.1902707995355675	12.896327456036794	12.297560733739028
6	-1.4174060822665346	13.485718046315617	12.297560733739028