%0scf int
#
 
10 pm3 1scf
 
0 1 
6	0.	8.13600069085769	0.
6	2.782676122384887	7.645339811908025	0.
6	4.068000345428845	7.045983283490504	-2.4595121467478056
6	6.232538118443699	5.229720436484449	-2.4595121467478056
6	7.045983283490503	4.068000345428846	0.
6	8.012396558869334	1.4128016934643248	0.
6	8.13600069085769	-1.3083686988753017e-15	-2.4595121467478056
6	7.645339811908024	-2.782676122384889	-2.4595121467478056
6	7.045983283490504	-4.068000345428844	0.
6	5.229720436484449	-6.232538118443699	0.
6	4.068000345428848	-7.045983283490502	-2.4595121467478056
6	1.4128016934643273	-8.012396558869334	-2.4595121467478056
6	-2.6167373977506034e-15	-8.13600069085769	0.
6	-2.78267612238489	-7.645339811908023	0.
6	-4.068000345428846	-7.045983283490503	-2.4595121467478056
6	-6.232538118443699	-5.229720436484449	-2.4595121467478056
6	-7.045983283490502	-4.068000345428849	0.
6	-8.012396558869334	-1.4128016934643313	0.
6	-8.13600069085769	-1.4945590805879287e-15	-2.4595121467478056
6	-7.645339811908026	2.7826761223848826	-2.4595121467478056
6	-7.045983283490507	4.068000345428841	0.
6	-5.229720436484455	6.232538118443694	0.
6	-4.068000345428849	7.045983283490502	-2.4595121467478056
6	-1.4128016934643317	8.012396558869334	-2.4595121467478056